Maximize
  1 x1,1 + 4 x2,2 + 9 x3,3 + 4 x4,1 + 10 x5,2 + 18 x6,3 

Subject To
GUB1: x1,1 + x1,2 + x1,3 <= 1
GUB2: x2,1 + x2,2 + x2,3 <= 1
GUB3: x3,1 + x3,2 + x3,3 <= 1
GUB4: x4,1 + x4,2 + x4,3 <= 1
GUB5: x5,1 + x5,2 + x5,3 <= 1
GUB6: x6,1 + x6,2 + x6,3 <= 1
(2,3)-SEP_#1_c1: x2,1 + x3,1 - x1,1 <= 1
(2,3)-SEP_#1_c2: x2,2 + x3,2 - x1,2 <= 1
(2,3)-SEP_#1_c3: x2,3 + x3,3 - x1,3 <= 1
(2,4)-SEP_#1_c1: x2,1 + x4,1 - x1,1 <= 1
(2,4)-SEP_#1_c2: x2,2 + x4,2 - x1,2 <= 1
(2,4)-SEP_#1_c3: x2,3 + x4,3 - x1,3 <= 1
(2,5)-SEP_#1_c1: x2,1 + x5,1 - x1,1 <= 1
(2,5)-SEP_#1_c2: x2,2 + x5,2 - x1,2 <= 1
(2,5)-SEP_#1_c3: x2,3 + x5,3 - x1,3 <= 1
(2,6)-SEP_#1_c1: x2,1 + x6,1 - x1,1 <= 1
(2,6)-SEP_#1_c2: x2,2 + x6,2 - x1,2 <= 1
(2,6)-SEP_#1_c3: x2,3 + x6,3 - x1,3 <= 1
(3,4)-SEP_#1_c1: x3,1 + x4,1 - x1,1 <= 1
(3,4)-SEP_#1_c2: x3,2 + x4,2 - x1,2 <= 1
(3,4)-SEP_#1_c3: x3,3 + x4,3 - x1,3 <= 1
(3,5)-SEP_#1_c1: x3,1 + x5,1 - x1,1 <= 1
(3,5)-SEP_#1_c2: x3,2 + x5,2 - x1,2 <= 1
(3,5)-SEP_#1_c3: x3,3 + x5,3 - x1,3 <= 1
(3,6)-SEP_#1_c1: x3,1 + x6,1 - x1,1 <= 1
(3,6)-SEP_#1_c2: x3,2 + x6,2 - x1,2 <= 1
(3,6)-SEP_#1_c3: x3,3 + x6,3 - x1,3 <= 1
(4,5)-SEP_#1_c1: x4,1 + x5,1 - x1,1 <= 1
(4,5)-SEP_#1_c2: x4,2 + x5,2 - x1,2 <= 1
(4,5)-SEP_#1_c3: x4,3 + x5,3 - x1,3 <= 1
(4,6)-SEP_#1_c1: x4,1 + x6,1 - x1,1 <= 1
(4,6)-SEP_#1_c2: x4,2 + x6,2 - x1,2 <= 1
(4,6)-SEP_#1_c3: x4,3 + x6,3 - x1,3 <= 1
(5,6)-SEP_#1_c1: x5,1 + x6,1 - x1,1 <= 1
(5,6)-SEP_#1_c2: x5,2 + x6,2 - x1,2 <= 1
(5,6)-SEP_#1_c3: x5,3 + x6,3 - x1,3 <= 1

Bounds

Binaries
 x1,1  x1,2  x1,3  x2,1  x2,2  x2,3  x3,1  x3,2  x3,3  x4,1  x4,2  x4,3  x5,1  x5,2  x5,3  x6,1  x6,2  x6,3 

End
